153
0 132 3 149 109 118 146 37 12 25 
91 63 96 92 125 80 99 11 128 2 
51 48 15 36 50 115 42 28 139 133 
29 134 75 26 87 106 65 60 5 88 
7 145 31 123 59 24 108 6 131 23 
104 39 17 147 71 124 27 38 41 69 
30 119 122 10 151 113 21 150 45 77 
18 144 152 81 57 9 73 98 100 66 
89 111 4 148 136 135 78 127 40 97 
86 62 44 94 1 120 95 84 103 126 
102 85 74 53 137 58 61 93 8 16 
143 130 14 121 47 46 83 33 22 13 
19 52 35 72 70 49 105 20 64 116 
67 114 107 54 141 142 90 34 117 82 
110 56 79 55 112 101 129 68 76 43 
32 140 138 
